; Filename: c:\Users\matteo\OneDrive - uniroma1.it\Documenti\data science\Honor Program\project\progetto_locale\Network\NET_30_pattern_single_peak_no_default_pattern_tank.inp
; WNTR: 1.2.0
; Created: 2026-05-13 15:22:17
[TITLE]
Northwest System

[JUNCTIONS]
;ID                      Elevation       Demand Pattern                 
 8628                              60               0 1                          ;
 8630                              60               0 1                          ;
 8632                              60               0 1                          ;
 8634                              60               0 1                          ;
 8636                              60               0 1                          ;
 8638                              60               0 1                          ;
 8640                              60               0 1                          ;
 8642                              60               0 1                          ;
 8644                              60               0 1                          ;
 8646                              60               0 1                          ;
 8648                              60               0 1                          ;
 8650                            62.5               0 1                          ;
 8686                              60               0 1                          ;
 8688                              60               0 1                          ;
 8690                              60               0 1                          ;
 8692                              60               0 1                          ;
 8694                              60               0 1                          ;
 8696                              60               0 1                          ;
 8698                              60               0 1                          ;
 8700                              60               0 1                          ;
 8702                              60               0 1                          ;
 8738                              60               0 1                          ;
 J106                            54.3               0 1                          ;
 2                                  0               0 1                          ;
 3                                  0               0 1                          ;
 4                                  0               0 1                          ;
 5                                  0               0 1                          ;
 6                                  0               0 1                          ;
 7                                  0               0 1                          ;
 8                                  0               0 1                          ;
 9                                  0               0 1                          ;
 10                                 0               0 1                          ;
 11                                 0               0 1                          ;
 12                                 0               0 1                          ;
 13                                 0               0 1                          ;
 14                                 0               0 1                          ;
 15                                 0               0 1                          ;
 16                                 0               0 1                          ;
 17                                 0               0 1                          ;
 18                                 0               0 1                          ;
 19                                 0               0 1                          ;
 20                                 0               0 1                          ;
 21                                 0               0 1                          ;
 22                                 0               0 1                          ;
 23                                 0               0 1                          ;
 24                                 0               0 1                          ;

[RESERVOIRS]
;ID                                   Head                  Pattern
 7384                               1                        3   ;

[TANKS]
;ID                              Elevation           Init Level            Min Level            Max Level             Diameter           Min Volume Volume Curve         Overflow            

[PIPES]
;ID                   Node1                Node2                              Length             Diameter            Roughness           Minor Loss               Status
 10133                8628                 8630                 134.810              10                   140.0                0                    Open   ;
 10135                8630                 8632                 100.045              10                   140.0                0                    Open   ;
 10137                8632                 8634                 41.427               10                   140.0                0                    Open   ;
 10139                8634                 8636                 49.499               10                   140.0                0                    Open   ;
 10141                8636                 8638                 33.105               10                   140.0                0                    Open   ;
 10143                8638                 8640                 7.689                10                   140.0                0                    Open   ;
 10145                8640                 8642                 19.737               10                   140.0                0                    Open   ;
 10147                8628                 8644                 171.726              8                    140.0                0                    Open   ;
 10149                8644                 8646                 63.498               8                    140.0                0                    Open   ;
 10151                8646                 8648                 77.994               8                    140.0                0                    Open   ;
 10153                8648                 8650                 44.309               8                    140.0                0                    Open   ;
 10191                8686                 8640                 59.310               8                    140.0                0                    Open   ;
 10193                8642                 8688                 52.616               8                    140.0                0                    Open   ;
 10195                8642                 8690                 21.059               8                    140.0                0                    Open   ;
 10197                8690                 8692                 52.096               8                    140.0                0                    Open   ;
 10199                8692                 8694                 97.116               8                    140.0                0                    Open   ;
 10201                8694                 8696                 21.950               8                    140.0                0                    Open   ;
 10203                8696                 8698                 45.329               8                    140.0                0                    Open   ;
 10205                8698                 8700                 75.649               8                    140.0                0                    Open   ;
 10207                8700                 8648                 64.944               8                    140.0                0                    Open   ;
 10209                8696                 8702                 59.120               8                    140.0                0                    Open   ;
 10247                8688                 8738                 83.649               4                    140.0                0                    Open   ;
 P387                 J106                 7384                 88.180               42                   140.0                0                    Open   ;
 1                    J106                 8628                 50.0                 12                   140.0                0                    Open   ;
 Merged_8628_2        8628                 2                    12.032               6.0                  140.0                ;                    Open   ;
 Merged_23_8644       23                   8644                 7.371                6.0                  140.0                ;                    Open   ;
 Merged_22_8646       22                   8646                 6.530                6.0                  140.0                ;                    Open   ;
 Merged_21_8648       21                   8648                 7.194                6.0                  140.0                ;                    Open   ;
 Merged_20_8650       20                   8650                 13.210               6.0                  140.0                ;                    Open   ;
 Merged_8700_19       8700                 19                   8.004                6.0                  140.0                ;                    Open   ;
 Merged_18_8698       18                   8698                 9.225                6.0                  140.0                ;                    Open   ;
 Merged_8702_17       8702                 17                   9.645                6.0                  140.0                ;                    Open   ;
 Merged_16_8696       16                   8696                 5.335                6.0                  140.0                ;                    Open   ;
 Merged_8694_15       8694                 15                   12.154               6.0                  140.0                ;                    Open   ;
 Merged_8738_14       8738                 14                   5.603                6.0                  140.0                ;                    Open   ;
 Merged_12_8688       12                   8688                 8.400                6.0                  140.0                ;                    Open   ;
 Merged_10_8642       10                   8642                 8.683                6.0                  140.0                ;                    Open   ;
 Merged_8_8640        8                    8640                 12.810               6.0                  140.0                ;                    Open   ;
 Merged_8638_7        8638                 7                    14.913               6.0                  140.0                ;                    Open   ;
 Merged_8636_6        8636                 6                    6.019                6.0                  140.0                ;                    Open   ;
 Merged_8634_5        8634                 5                    12.184               6.0                  140.0                ;                    Open   ;
 Merged_8632_4        8632                 4                    9.536                6.0                  140.0                ;                    Open   ;
 Merged_8630_3        8630                 3                    10.302               6.0                  140.0                ;                    Open   ;
 Merged_8686_9        8686                 9                    14.165               6.0                  140.0                ;                    Open   ;
 Merged_11_8690       11                   8690                 11.612               6.0                  140.0                ;                    Open   ;
 Merged_8692_13       8692                 13                   12.617               6.0                  140.0                ;                    Open   ;
 Merged_J106_24       J106                 24                   12.408               6.0                  140.0                ;                    Open   ;

[PUMPS]
;ID                   Node1                Node2                Properties          

[VALVES]
;ID                   Node1                Node2                            Diameter Type              Setting           Minor Loss

[TAGS]
;type      name       tag       
NODE       8628       PASS_0    
NODE       8630       PASS_0    
NODE       8632       PASS_0    
NODE       8634       PASS_0    
NODE       8636       PASS_0    
NODE       8638       PASS_0    
NODE       8640       PASS_0    
NODE       8642       PASS_0    
NODE       8644       PASS_0    
NODE       8646       PASS_0    
NODE       8648       PASS_0    
NODE       8650       PASS_0    
NODE       8686       PASS_0    
NODE       8688       PASS_0    
NODE       8690       PASS_0    
NODE       8692       PASS_0    
NODE       8694       PASS_0    
NODE       8696       PASS_0    
NODE       8698       PASS_0    
NODE       8700       PASS_0    
NODE       8702       PASS_0    
NODE       8738       PASS_0    
NODE       J106       PASS_0    
NODE       2          USER_1    
NODE       3          USER_1    
NODE       4          USER_1    
NODE       5          USER_1    
NODE       6          USER_1    
NODE       7          USER_1    
NODE       8          USER_1    
NODE       9          USER_1    
NODE       10         USER_1    
NODE       11         USER_1    
NODE       12         USER_1    
NODE       13         USER_1    
NODE       14         USER_1    
NODE       15         USER_1    
NODE       16         USER_1    
NODE       17         USER_1    
NODE       18         USER_1    
NODE       19         USER_1    
NODE       20         USER_1    
NODE       21         USER_1    
NODE       22         USER_1    
NODE       23         USER_1    
NODE       24         PASS_0    

[DEMANDS]
;ID        Demand     Pattern   

[STATUS]
;ID        Setting   

[PATTERNS]
;ID        Multipliers

1 0.853754 0.904368 0.927728 0.860428 0.753640 0.877670
1 1.223065 1.205267 1.117945 1.033404 1.016162 0.958874
1 0.860428 0.887126 0.779224 0.753083 0.826501 0.943857
1 1.091248 1.260330 1.268673 1.131850 0.983347 0.793129
1 0.933290 0.993358 1.067332 0.998920 0.840962 0.912154
1 1.205823 1.176345 1.006151 1.012269 1.003370 0.925503
1 0.887682 0.870440 0.818714 0.775331 0.819270 0.879895
1 0.910486 0.915491 0.899362 0.842074 0.744741 0.629609
1 0.566759 0.500016 0.498904 0.469426 0.435498 0.389890
1 0.468313 0.609586 0.842074 1.020055 1.110158 1.112383
1 1.035629 0.981678 0.927171 0.918829 0.921610 0.930509
1 0.927728 0.907705 0.853754 0.804809 0.669655 0.565647
1 0.520595 0.474988 0.481662 0.446622 0.425487 0.398233
1 0.436610 0.626272 0.941632 1.101259 1.175233 1.155210
1 1.089579 0.983347 0.935514 0.911042 0.958874 0.976116
1 1.055652 1.149648 1.146311 0.922166 0.728055 0.579552
1 0.695796 0.701914 0.697464 0.699133 0.602912 0.762539
1 1.082905 1.051202 0.969442 0.855979 0.883788 0.797579
1 0.809815 0.777556 0.745853 0.676885 0.763651 0.865990
1 0.986684 1.075118 1.084017 0.947751 0.779224 0.611255
1 0.714706 0.725830 0.775331 0.721381 0.619597 0.768657
1 1.077343 1.023393 0.904924 0.893244 0.923834 0.873221
1 0.788680 0.840962 0.671879 0.655194 0.692459 0.837625
1 0.935514 1.037854 1.087355 0.951088 0.763651 0.580108
1 0.606805 0.671879 0.705251 0.620154 0.559529 0.773106
1 1.064551 1.033404 0.946638 0.906592 0.832341 0.758089
1 0.703582 0.752527 0.725274 0.745297 0.761426 0.860985
1 0.978897 1.074562 1.051758 0.938295 0.761426 0.562310
1 0.630165 0.635727 0.665761 0.638508 0.573434 0.719712
1 1.079568 1.045084 0.897693 0.866547 0.822607 0.783674
1 0.740847 0.783674 0.724161 0.695796 0.746409 0.835956
1 0.926059 1.150760 1.074562 0.898249 0.780337 0.589563
1 0.706920 0.746965 0.774775 0.717487 0.566203 0.720268
1 1.071781 1.049534 0.932177 0.892131 0.859872 0.818158
1 0.777556 0.759202 0.718600 0.763095 0.804253 0.909373
1 0.952200 0.977785 0.976672 0.902143 0.806478 0.698020
1 0.581220 0.531163 0.479437 0.497792 0.464976 0.443841
1 0.500016 0.738066 1.011156 1.148536 1.171340 1.161884
1 1.100703 1.044528 1.010044 0.982234 0.955537 0.990021
1 0.998920 0.987796 0.941076 0.845967 0.747522 0.622935

3 183.555960 183.440160 182.814840 184.366560 183.996000 184.088640
3 189.021720 191.082960 189.809160 182.606400 186.798360 187.562640
3 190.573440 188.419560 189.809160 182.490600 181.170480 178.831320
3 177.696480 175.704720 177.812280 178.020720 180.614640 184.505520
3 176.469000 179.433480 181.772640 184.065480 184.412880 182.305320
3 187.331040 188.790120 185.918280 183.741240 183.046440 179.734560
3 183.648600 184.412880 184.575000 183.857040 183.648600 186.034080
3 186.080400 186.335160 186.752040 186.867840 185.848800 186.219360
3 183.555960 184.227600 183.926520 184.250760 184.250760 182.467440
3 181.054680 174.014040 183.486480 181.911600 188.604840 188.766960
3 188.998560 188.743800 188.489040 188.581680 188.581680 188.581680
3 188.697480 188.766960 188.674320 187.446840 188.790120 188.697480
3 187.840560 184.088640 183.324360 184.181280 184.320240 183.972840
3 183.486480 182.861160 180.012480 180.012480 181.517880 181.680000
3 181.726320 180.197760 178.761840 181.239960 180.035640 179.248200
3 182.652720 186.520440 188.975400 187.794240 186.126720 185.292960
3 184.019160 183.486480 183.463320 184.320240 184.158120 183.278040
3 184.575000 184.042320 183.393840 185.339280 186.057240 186.242520
3 186.358320 186.288840 186.358320 182.699040 182.861160 185.107680
3 181.008360 180.313560 183.370680 183.648600 185.524560 183.972840
3 183.046440 180.776760 179.827200 179.873520 181.008360 182.814840
3 182.235840 184.042320 182.050560 185.177160 184.760280 183.115920
3 182.374800 182.675880 184.273920 183.208560 186.010920 185.941440
3 183.440160 182.050560 185.733000 183.694920 184.945560 181.054680
3 179.827200 181.610520 181.541040 181.981080 181.726320 180.336720
3 180.035640 181.239960 182.143200 183.463320 185.848800 190.110240
3 186.867840 184.134960 184.019160 183.880200 183.810720 183.532800
3 182.120040 182.838000 182.699040 183.949680 184.320240 184.760280
3 183.486480 183.833880 183.949680 184.273920 184.181280 182.143200
3 184.343400 186.126720 188.651160 186.404640 183.440160 183.926520
3 185.825640 187.886880 186.589920 183.671760 182.930640 181.031520
3 181.008360 177.071160 182.421120 180.892560 182.560080 182.722200
3 183.440160 184.181280 183.694920 184.227600 184.181280 182.861160
3 181.147320 183.347520 180.359880 186.474120 186.427800 186.288840
3 186.288840 186.427800 186.196200 182.027400 180.892560 180.962040
3 179.433480 181.448400 181.911600 182.814840 186.450960 185.246640
3 183.972840 184.042320 183.880200 185.455080 186.427800 186.288840
3 185.570880 181.957920 179.456640 182.259000 183.857040 186.566760
3 186.358320 186.404640 183.903360 183.903360 178.761840 181.842120
3 186.173040 181.818960 183.370680 188.489040 188.929080 188.674320

4 177.488000 177.488000 177.488000 177.488000 177.488000 175.172000
4 177.488000 182.120000 182.120000 177.488000 182.120000 182.120000
4 182.120000 179.804000 182.120000 177.488000 177.488000 172.856000
4 175.172000 177.488000 179.804000 177.488000 175.172000 177.488000
4 170.540000 175.172000 179.804000 179.804000 179.804000 175.172000
4 175.172000 179.804000 172.856000 172.856000 172.856000 179.804000
4 177.488000 177.488000 179.804000 179.804000 179.804000 179.804000
4 179.804000 179.804000 179.804000 182.120000 179.804000 177.488000
4 175.172000 172.856000 172.856000 175.172000 175.172000 179.804000
4 179.804000 170.540000 175.172000 172.856000 175.172000 175.172000
4 177.488000 179.804000 179.804000 179.804000 179.804000 179.804000
4 179.804000 179.804000 179.804000 179.804000 179.804000 179.804000
4 179.804000 177.488000 175.172000 175.172000 175.172000 175.172000
4 175.172000 172.856000 172.856000 170.540000 172.856000 170.540000
4 170.540000 170.540000 170.540000 172.856000 170.540000 170.540000
4 170.540000 172.856000 172.856000 175.172000 175.172000 179.804000
4 179.804000 179.804000 175.172000 177.488000 177.488000 175.172000
4 172.856000 172.856000 175.172000 177.488000 177.488000 177.488000
4 177.488000 177.488000 177.488000 175.172000 177.488000 177.488000
4 170.540000 168.224000 170.540000 175.172000 177.488000 177.488000
4 175.172000 172.856000 172.856000 177.488000 177.488000 177.488000
4 172.856000 172.856000 172.856000 177.488000 175.172000 175.172000
4 177.488000 175.172000 177.488000 177.488000 177.488000 177.488000
4 175.172000 170.540000 172.856000 175.172000 177.488000 177.488000
4 177.488000 179.804000 177.488000 179.804000 179.804000 175.172000
4 168.224000 175.172000 177.488000 175.172000 175.172000 175.172000
4 177.488000 177.488000 177.488000 177.488000 177.488000 177.488000
4 175.172000 177.488000 177.488000 177.488000 175.172000 177.488000
4 177.488000 177.488000 177.488000 177.488000 179.804000 175.172000
4 172.856000 177.488000 182.120000 179.804000 179.804000 179.804000
4 182.120000 182.120000 182.120000 177.488000 177.488000 175.172000
4 175.172000 177.488000 179.804000 172.856000 177.488000 177.488000
4 177.488000 177.488000 177.488000 179.804000 177.488000 175.172000
4 177.488000 177.488000 172.856000 179.804000 179.804000 179.804000
4 179.804000 179.804000 179.804000 177.488000 175.172000 172.856000
4 170.540000 172.856000 172.856000 175.172000 177.488000 177.488000
4 177.488000 177.488000 177.488000 175.172000 177.488000 177.488000
4 175.172000 172.856000 172.856000 179.804000 175.172000 172.856000
4 172.856000 175.172000 177.488000 177.488000 170.540000 177.488000
4 179.804000 172.856000 175.172000 179.804000 179.804000 179.804000

5 188.196397 187.571077 186.714157 188.868037 188.937517 188.451157
5 191.091397 193.592677 193.083157 186.135157 190.466077 191.253517
5 195.005437 192.573637 194.495917 187.987957 186.482557 183.355957
5 181.618957 179.696677 182.035837 182.684317 184.977157 189.493357
5 180.924157 183.633877 186.019357 188.613277 189.632317 186.528877
5 189.145957 191.716717 188.381677 186.922597 186.227797 184.861357
5 188.126917 189.006997 189.794437 189.447037 188.705917 190.674517
5 190.466077 190.674517 191.322997 191.878837 191.230357 191.415637
5 189.076477 189.516517 189.192277 189.840757 190.072357 188.960677
5 187.408957 179.650357 187.733197 185.069797 190.790317 190.813477
5 192.040957 192.388357 192.388357 192.457837 192.480997 192.388357
5 192.735757 192.712597 193.152637 192.226237 193.731637 193.685317
5 193.361077 190.095517 188.821717 189.771277 190.095517 189.933397
5 189.006997 187.617397 184.073917 182.962237 184.305517 184.282357
5 184.699237 183.726517 182.846437 185.301397 183.865477 183.054877
5 185.556157 188.404837 190.790317 191.137717 190.558717 191.137717
5 189.609157 188.914357 188.011117 189.400717 189.678637 187.941637
5 187.131037 187.107877 187.154197 189.377557 190.257637 190.489237
5 190.720837 190.906117 191.184037 187.964797 187.848997 189.539677
5 184.745557 180.252517 186.250957 187.779517 190.257637 189.701797
5 187.941637 185.602477 184.861357 185.718277 186.806797 187.848997
5 185.324557 187.408957 186.158317 189.284917 188.821717 187.385797
5 187.594237 187.432117 189.470197 188.613277 190.952437 190.280797
5 187.501597 184.953997 188.150077 187.547917 189.655477 187.061557
5 185.347717 187.061557 186.899437 187.686877 187.663717 185.718277
5 182.614837 185.116117 187.061557 186.737317 188.126917 193.500037
5 191.392477 189.238597 189.215437 189.076477 188.983837 188.427997
5 186.436237 187.084717 186.945757 188.451157 189.053317 190.350277
5 188.937517 189.145957 188.891197 189.678637 189.724957 186.945757
5 187.131037 189.863917 193.083157 191.091397 188.520637 189.284917
5 191.346157 192.782077 192.064117 189.006997 188.103757 186.575197
5 185.509837 178.955557 186.135157 184.815037 187.756357 188.659597
5 188.775397 189.447037 188.891197 189.609157 190.002877 187.964797
5 185.324557 187.501597 184.513957 190.651357 191.091397 191.207197
5 191.207197 191.392477 191.531437 187.594237 186.204637 185.556157
5 183.402277 185.370877 185.926717 187.246837 191.091397 190.674517
5 189.794437 190.141837 189.910237 190.859797 192.156757 192.017797
5 190.674517 186.714157 183.680197 186.111997 186.829957 188.219557
5 188.844877 189.377557 187.848997 188.103757 182.869597 186.320437
5 190.605037 185.718277 187.501597 192.990517 193.801117 193.801117

2 0.330000 0.250000 0.209000 0.209000 0.259000 0.320000
2 0.200000 0.310000 0.300000 0.399000 0.440000 0.440000
2 0.420000 0.369000 0.900000 1.250000 1.279000 1.370000
2 1.519000 1.700000 1.750000 1.669000 0.899000 0.479000

6 0.632100 0.539900 0.572800 0.663300 0.788600 1.056200
6 1.297000 1.218000 1.083400 1.086800 1.045400 1.029800
6 0.886700 0.827200 0.841500 0.863800 0.933400 1.109800
6 1.324900 1.486700 1.483200 1.207600 0.934100 0.658800
6 0.611100 0.762000 1.013100 1.282800 1.661100 1.953900
6 2.108900 1.802700 1.283000 1.053100 0.945900 0.881900
6 0.837000 0.840400 0.912200 0.946700 0.943300 1.167400
6 1.565400 1.929500 1.989500 1.748200 1.333700 0.955700
6 0.796500 0.878700 1.015500 1.272300 1.630400 2.015800
6 2.169400 1.833000 1.318600 1.049400 0.967400 0.862400
6 0.817600 0.814800 0.794200 0.834500 0.935500 1.118900
6 1.539600 1.842000 1.929700 1.647500 1.289000 0.907300
6 0.666500 0.593000 0.608700 0.698500 0.830400 1.118900
6 1.379800 1.271100 1.078400 0.991400 0.922600 0.857200
6 0.828600 0.838700 0.817100 0.848800 0.931300 1.096900
6 1.325700 1.523500 1.506800 1.306900 1.004000 0.723600
6 0.553700 0.528700 0.579400 0.690100 0.869000 1.121300
6 1.395000 1.323900 1.134400 1.043900 0.981800 0.953900
6 0.899600 0.860000 0.834900 0.885400 0.982100 1.103600
6 1.228100 1.310200 1.294200 1.133900 0.978500 0.796200
6 0.710300 0.797600 0.963800 1.222600 1.453300 1.668400
6 1.641200 1.608300 1.499100 1.415400 1.370800 1.319700
6 1.241400 1.185000 1.175900 1.177700 1.204800 1.265000
6 1.519700 1.795700 1.908800 1.669500 1.363000 1.063800
6 0.876700 0.892100 1.001300 1.205500 1.473500 1.507900
6 1.539900 1.528500 1.483000 1.416400 1.338100 1.264700
6 1.221400 1.181500 1.140800 1.146400 1.200300 1.374300
6 1.809600 2.152900 2.094100 1.728400 1.229900 0.800100
6 0.586500 0.532500 0.571100 0.668500 0.792100 1.046800
6 1.298400 1.198700 1.065600 1.032600 0.996000 0.951800
6 0.901700 0.868700 0.818800 0.854400 0.924300 1.052400
6 1.228700 1.357500 1.377200 1.154100 0.920800 0.687300
6 0.650700 0.790900 0.994000 1.270000 1.652100 1.904000
6 2.013200 1.615700 1.181200 1.050600 0.917300 0.835900
6 0.759300 0.753100 0.734100 0.752500 0.814800 0.988100
6 1.364600 1.692400 1.747600 1.570600 1.209800 0.879800
6 0.768000 0.863500 1.023900 1.303700 1.638400 1.978900
6 2.082000 1.721100 1.263200 1.056900 0.952500 0.865900
6 0.845000 0.842200 0.825800 0.866200 0.959800 1.145700
6 1.537200 1.923500 2.095800 1.779700 1.346500 0.952900
6 0.703000 0.621900 0.639000 0.743700 0.879400 1.118800
6 1.391000 1.294300 1.132700 1.077700 0.986100 0.891200
6 0.841200 0.801600 0.786200 0.816500 0.889900 1.027300
6 1.188500 1.313000 1.314400 1.174700 0.953300 0.684200
6 0.535200 0.528000 0.572500 0.666800 0.850900 1.077800
6 1.365900 1.275800 1.106100 1.000700 0.948400 0.893900
6 0.858600 0.871400 0.875600 0.911500 0.964700 1.029800
6 1.047900 1.011700 0.891600 0.838700 0.743700 0.632400
6 0.571500 0.597600 0.700600 0.863400 1.023500 1.154400
6 1.143600 1.161700 1.186700 1.203800 1.172100 1.111200
6 1.050000 1.024200 0.988700 0.987700 1.007200 1.037800
6 1.161700 1.332800 1.370000 1.204900 1.064100 0.863400
6 0.719800 0.707700 0.756900 0.895800 1.081300 1.136600
6 1.104200 1.077800 1.102200 1.154000 1.163100 1.123400
6 1.077800 1.042000 1.002600 1.003300 1.024200 1.091700
6 1.307900 1.508900 1.574700 1.358000 1.059300 0.749400
6 0.556600 0.509400 0.546400 0.625400 0.737800 0.978600
6 1.221200 1.114300 0.940700 0.842200 0.764300 0.760400
6 0.748400 0.743600 0.685000 0.705100 0.752400 0.838400
6 0.939600 0.991500 0.984200 0.892700 0.724200 0.550900
6 0.471200 0.522400 0.611100 0.753800 1.003300 1.219400
6 1.446400 1.196800 0.940100 0.858600 0.807500 0.750700
6 0.724300 0.751400 0.718000 0.883300 0.857900 0.937200
6 1.148100 1.364300 1.384100 1.310000 1.017900 0.748300
6 0.656900 0.745200 0.885000 1.123000 1.467200 1.711200
6 1.893400 1.514900 1.097100 0.934400 0.898600 0.943700
6 0.925700 0.768100 0.738800 0.812600 0.878700 1.040600
6 1.305000 1.548900 1.661100 1.452700 1.137300 0.812700
6 0.603400 0.547400 0.562400 0.650800 0.791000 1.026600
6 1.311200 1.202100 0.993500 0.918000 0.914600 0.811000
6 0.764300 0.781300 0.760100 0.819200 0.912800 1.029400
6 1.227800 1.364900 1.303300 1.117100 0.989800 0.745800
6 0.625000 0.592500 0.651100 0.732200 0.892700 1.096900
6 1.396900 1.300300 1.113600 1.032900 0.955600 0.879900
6 0.819700 0.826700 0.801100 0.855100 0.924300 1.036000
6 1.177700 1.262200 1.241400 1.123700 1.006100 0.845700
6 0.792100 0.862000 1.018300 1.262200 1.554300 1.700900
6 1.674900 1.622800 1.503500 1.458100 1.355200 1.212400
6 1.149000 1.098000 1.069400 1.056700 1.097400 1.151500
6 1.408200 1.644300 1.774800 1.544700 1.297900 1.018000
6 0.864000 0.876700 0.981500 1.197100 1.585500 1.673900
6 1.581700 1.506500 1.439700 1.377800 1.281700 1.175200
6 1.116800 1.043700 1.012400 1.011700 1.048600 1.151900
6 1.536400 1.902200 2.026800 1.725400 1.330500 0.931300
6 0.664500 0.590400 0.610100 0.708900 0.834500 1.061100
6 1.343900 1.257900 1.090300 1.004400 0.955700 0.917300
6 0.885800 0.846200 0.799400 0.854000 0.930900 1.071900
6 1.283400 1.435100 1.439400 1.196600 0.926000 0.691800
6 0.668000 0.841200 1.074000 1.409100 1.756100 2.035100
6 2.130300 1.740000 1.249600 1.007200 0.948700 0.884100
6 0.849300 0.841600 0.825200 0.885000 0.945200 1.150200
6 1.577900 1.958500 1.985900 1.725100 1.305300 0.949300
6 0.844700 0.951100 1.105300 1.374600 1.725800 2.080300
6 2.164200 1.762100 1.262300 1.023900 0.929400 0.882300
6 0.843000 0.817600 0.813400 0.840100 0.936500 1.142900
6 1.590100 2.021900 2.163700 1.838200 1.365600 0.967900
6 0.718600 0.625800 0.633700 0.737500 0.877400 1.127200
6 1.415900 1.285200 1.092800 1.004800 0.985900 0.887900
6 0.844700 0.873900 0.862700 0.904100 0.967500 1.115400
6 1.375000 1.589600 1.594400 1.330300 1.042600 0.756700
6 0.599800 0.572200 0.612200 0.715900 0.883300 1.106800
6 1.407200 1.316400 1.131600 1.038800 0.962600 0.914300
6 0.864900 0.850100 0.870400 0.890900 0.967800 1.105300
6 1.263600 1.365200 1.372200 1.189900 1.011700 0.862400
6 0.847800 0.939600 1.095200 1.339500 1.653200 1.836400
6 1.804000 1.734300 1.551500 1.447900 1.379900 1.316500
6 1.231000 1.220700 1.180500 1.163800 1.188800 1.268900
6 1.565600 1.823600 1.893400 1.597500 1.295500 1.028100
6 0.902700 0.935900 1.027200 1.260200 1.578200 1.689600
6 1.573700 1.486000 1.430700 1.401800 1.336700 1.269200
6 1.234400 1.183600 1.185300 1.173500 1.128600 1.229200
6 1.622500 1.974000 2.047800 1.748700 1.327800 0.882300
6 0.699600 0.582300 0.613200 0.716200 0.833200 1.047900
6 1.335600 1.255200 1.080900 1.003300 0.989100 0.945600
6 0.873300 0.887500 0.851300 0.839100 0.837700 0.872700
6 1.011200 1.099600 1.088200 0.985000 0.793400 0.608900
6 0.589600 0.720800 0.887400 1.169000 1.471700 1.706700
6 1.846600 1.478400 1.077400 0.927800 0.861700 0.810300
6 0.785200 0.807000 0.763600 0.813700 0.912200 1.064600
6 1.435900 1.768000 1.825200 1.661800 1.218300 0.899700
6 0.795100 0.880400 1.038800 1.338100 1.702500 2.016600
6 2.096700 1.653000 1.205600 0.984500 0.923500 0.873200
6 0.836400 0.817900 0.798100 0.846700 0.937900 1.167900
6 1.593200 1.963800 2.050800 1.723900 1.313900 0.913100
6 0.685800 0.599300 0.620200 0.729800 0.856500 1.098500
6 1.369700 1.261800 1.070200 0.968200 0.995200 0.912900
6 0.857300 0.874200 0.850200 0.902400 0.993200 1.149000
6 1.420000 1.628000 1.730200 1.478400 1.174700 0.850200
6 0.652000 0.600200 0.637900 0.737500 0.886400 1.158100
6 1.428200 1.346100 1.209100 1.094800 1.123000 1.042800
6 0.960200 0.949800 0.928900 0.991400 1.085800 1.245900
6 1.417500 1.529900 1.561500 1.361800 1.147700 0.938300
6 0.885700 0.958400 1.124800 1.416200 1.743700 1.899100
6 1.875400 1.755800 1.605400 1.538600 1.471100 1.408300
6 1.348900 1.298400 1.223000 1.229600 1.268900 1.420400
6 1.735800 2.059600 2.208000 1.934000 1.584900 1.230600
6 1.050000 1.074400 1.199200 1.408100 1.732000 1.910500
6 1.786300 1.692400 1.585500 1.535100 1.489500 1.409800
6 1.342300 1.283500 1.253500 1.262600 1.317600 1.516800
6 2.075300 2.518900 2.612000 2.105300 1.574900 1.114700
6 0.850500 0.749600 0.738500 0.834000 0.966800 1.191500
6 1.452200 1.422500 1.265200 1.160700 1.111100 1.072800
6 1.023700 0.987300 0.984100 0.973700 1.063900 1.253400
6 1.571600 1.842000 1.888100 1.569600 1.210500 0.885400
6 0.836500 1.030000 1.279600 1.610300 2.048600 2.233500
6 2.343400 2.059400 1.508800 1.276000 1.134700 0.987500
6 0.960900 0.947300 0.921800 0.961400 1.076500 1.341000
6 1.918900 2.408700 2.532600 2.265400 1.768000 1.260200
6 1.053200 1.145000 1.277800 1.554300 1.918400 2.156300
6 2.293400 2.018900 1.500900 1.212800 1.064200 0.998000
6 0.944200 0.979600 0.928400 0.962200 1.074400 1.344200
6 1.868100 2.380800 2.609500 2.344000 1.869400 1.262500
6 0.908800 0.778200 0.808200 0.918800 1.006600 1.222500
6 1.509500 1.473900 1.299000 1.113500 1.035300 0.990200
6 0.990300 0.977100 0.990600 1.003500 1.065900 1.281900
6 1.543100 1.792300 1.842900 1.659200 1.330600 0.993400

7 0.569150 0.464669 0.438548 0.360416 0.309779 0.334525
7 0.384704 0.471542 0.550133 0.680506 0.703648 0.670883
7 0.796902 0.719916 0.770553 0.738475 0.814774 0.724269
7 0.806984 0.779259 0.866786 0.740766 0.670424 0.632389
7 0.522520 0.506710 0.445588 0.454651 0.475474 0.533896
7 0.662502 0.622397 0.675999 0.725937 0.803062 0.701450
7 0.693352 0.653825 0.621433 0.652283 0.571880 0.579014
7 0.582099 0.711669 0.704535 0.665780 0.741748 0.692195
7 0.727090 0.619247 0.463045 0.450955 0.309261 0.282421
7 0.433304 0.406706 0.545015 0.699283 0.739905 0.643427
7 0.680906 0.691062 0.677279 0.626259 0.626743 0.714274
7 0.681873 0.788265 0.757798 0.788265 0.802047 0.845571
7 0.604884 0.443634 0.513158 0.364761 0.317827 0.463887
7 0.395726 0.641497 0.671098 0.668761 0.794568 0.674604
7 0.754255 0.808395 0.713748 0.685704 0.681225 0.549576
7 0.682199 0.569830 0.743349 0.832154 0.678888 0.746271
7 0.601326 0.503529 0.519088 0.359462 0.299248 0.453217
7 0.429576 0.539496 0.896331 0.896735 0.682553 0.579907
7 0.428970 0.420079 0.629412 0.691039 0.670632 0.618905
7 0.682553 0.832884 0.902796 0.821771 0.849453 0.691039
7 0.716292 0.547753 0.533495 0.419646 0.356018 0.338143
7 0.452417 0.509874 0.564564 0.760768 0.621595 0.678201
7 0.692884 0.639258 0.619893 0.659687 0.656282 0.631810
7 0.604145 0.703950 0.772472 0.885470 0.883342 0.752043
7 0.714098 0.457925 0.446544 0.429370 0.401849 0.433094
7 0.469927 0.522279 0.590771 0.754863 0.769968 0.644779
7 0.732101 0.709546 0.548145 0.577735 0.592427 0.624500
7 0.559732 0.766864 0.716995 0.774521 0.904470 0.857498

8 0.618421 0.453947 0.444737 0.338158 0.315789 0.313158
8 0.414474 0.448684 0.498684 0.581579 0.684211 0.727632
8 0.669737 0.792105 0.668421 0.815789 0.771053 0.830263
8 0.807895 0.793421 0.835526 0.836842 0.677632 0.661842
8 0.567746 0.470814 0.470814 0.426076 0.428206 0.474009
8 0.579463 0.623136 0.683852 0.774393 0.771197 0.795697
8 0.662548 0.736046 0.711547 0.595441 0.634853 0.616745
8 0.581594 0.596506 0.700895 0.650831 0.715807 0.731785
8 0.681083 0.733681 0.499011 0.373584 0.315591 0.276479
8 0.347959 0.461248 0.528682 0.625787 0.668944 0.764701
8 0.666247 0.651412 0.756609 0.561050 0.655458 0.644668
8 0.716148 0.840227 0.771444 0.790325 0.848319 0.821345
8 0.665203 0.501647 0.492865 0.416026 0.361142 0.437980
8 0.394072 0.654226 0.605928 0.811196 0.769484 0.643249
8 0.697036 0.676180 0.708013 0.708013 0.705818 0.538968
8 0.580681 0.565313 0.754116 0.825467 0.693743 0.793633
8 0.751853 0.508009 0.485298 0.380110 0.337079 0.394454
8 0.484102 0.641884 0.812814 0.846283 0.682525 0.592876
8 0.425532 0.419555 0.583313 0.623954 0.586899 0.562993
8 0.659814 0.811618 0.811618 0.882142 0.858236 0.857040
8 0.670351 0.574243 0.502162 0.432484 0.373618 0.354397
8 0.467323 0.466122 0.593465 0.717203 0.586257 0.586257
8 0.681163 0.647525 0.689572 0.716002 0.707593 0.682364
8 0.660740 0.734022 0.806103 0.796492 0.842143 0.712398
8 0.594278 0.465188 0.494263 0.445418 0.326795 0.512870
8 0.514033 0.525663 0.582648 0.601256 0.779191 0.662893
8 0.682664 0.729183 0.589626 0.603582 0.588463 0.659405
8 0.625678 0.697783 0.782679 0.817569 0.929214 0.789657

9 1.279000 1.370000 1.519000 1.700000 1.750000 1.669000
9 0.899000 0.479000 0.330000 0.250000 0.209000 0.209000
9 0.259000 0.320000 0.200000 0.310000 0.300000 0.399000
9 0.440000 0.440000 0.420000 0.369000 0.900000 1.250000

10 0.300000 0.399000 0.440000 0.440000 0.420000 0.369000
10 0.900000 1.250000 1.279000 1.370000 1.519000 1.700000
10 1.750000 1.669000 0.899000 0.479000 0.330000 0.250000
10 0.209000 0.209000 0.259000 0.320000 0.200000 0.310000

[CURVES]
;ID         X-Value      Y-Value     
;UNKNOWN: 1_CURVE
 1_CURVE        0.000000    55.000000   ;
 1_CURVE     4200.000000    50.000000   ;
 1_CURVE     8400.000000    40.000000   ;
 1_CURVE     9400.000000    30.000000   ;


[CONTROLS]

[RULES]

[ENERGY]
GLOBAL EFFICIENCY      75.0000
GLOBAL PRICE           0.0000
DEMAND CHARGE          0.0000

[EMITTERS]
;ID        Flow coefficient

[QUALITY]

[SOURCES]
;Node      Type       Quality    Pattern   

[REACTIONS]
;Type           Pipe/Tank               Coefficient

 ORDER BULK 1
 ORDER TANK 1
 ORDER WALL 1
 GLOBAL BULK 0.0000    
 GLOBAL WALL 0.0000    
 LIMITING POTENTIAL 0.0000    
 ROUGHNESS CORRELATION 0.0000    

[MIXING]
;Tank ID             Model Fraction

[TIMES]
DURATION             168:00:00
HYDRAULIC TIMESTEP   01:00:00
QUALITY TIMESTEP     00:05:00
PATTERN TIMESTEP     01:00:00
PATTERN START        00:00:00
REPORT TIMESTEP      01:00:00
REPORT START         00:00:00
START CLOCKTIME      00:00:00 AM
RULE TIMESTEP        00:06:00
STATISTIC            NONE      

[REPORT]
STATUS     FULL
SUMMARY    NO
PAGE       0

[OPTIONS]
UNITS                GPM                 
HEADLOSS             H-W                 
SPECIFIC GRAVITY     1
VISCOSITY            1
TRIALS               40
ACCURACY             0.01
CHECKFREQ            2
MAXCHECK             10
UNBALANCED           CONTINUE 10
PATTERN              1                   
DEMAND MULTIPLIER    1
EMITTER EXPONENT     0.5
QUALITY              NONE                
DIFFUSIVITY          1
TOLERANCE            0.01

[COORDINATES]
;Node      X-Coord    Y-Coord   
8628           497381.240000000    1379459.290000000
8630           498045.840000000    1379433.270000000
8632           498546.050000000    1379428.960000000
8634           498753.180000000    1379427.180000000
8636           498671.980000000    1379203.580000000
8638           498638.220000000    1379045.280000000
8640           498603.500000000    1379028.750000000
8642           498521.200000000    1378983.400000000
8644           497221.320000000    1378651.320000000
8646           497310.720000000    1378346.700000000
8648           497424.750000000    1377973.780000000
8650           497489.760000000    1377761.980000000
8686           498830.200000000    1378880.380000000
8688           498263.570000000    1378944.380000000
8690           498560.180000000    1378898.950000000
8692           498491.820000000    1378666.130000000
8694           498263.180000000    1378259.820000000
8696           498259.620000000    1378150.320000000
8698           498032.980000000    1378149.010000000
8700           497733.900000000    1378073.140000000
8702           498098.270000000    1377907.620000000
8738           498017.860000000    1378668.200000000
J106           494000.440000000    1376678.870000000
2              497363.176000000    1379652.949000000
3              498048.870000000    1379661.439000000
4              498545.743000000    1379665.261000000
5              498893.554000000    1379573.530000000
6              498866.799000000    1379206.609000000
7              498855.333000000    1379030.792000000
8              498553.387000000    1379126.345000000
9              499107.592000000    1378877.908000000
10             498457.835000000    1379095.768000000
11             498671.872000000    1378820.577000000
12             498213.220000000    1379034.614000000
13             498660.406000000    1378663.870000000
14             498247.619000000    1378663.870000000
15             498484.589000000    1378251.084000000
16             498427.258000000    1378059.979000000
17             498098.557000000    1377712.167000000
18             498025.937000000    1378300.771000000
19             497792.789000000    1377895.628000000
20             497211.830000000    1377754.211000000
21             497028.369000000    1377945.316000000
22             496909.884000000    1378316.059000000
23             496875.485000000    1378633.294000000
24             494012.732000000    1376985.968000000
7384           493747.160000000    1377175.410000000

[VERTICES]
;Link      X-Coord    Y-Coord   
10133          497681.890000000    1379460.180000000
10133          497708.740000000    1379435.770000000
10139          498750.280000000    1379364.840000000
10139          498700.120000000    1379301.530000000
10139          498693.940000000    1379293.180000000
10139          498687.450000000    1379282.670000000
10139          498681.890000000    1379271.240000000
10139          498676.630000000    1379255.780000000
10139          498673.850000000    1379241.560000000
10139          498672.840000000    1379230.360000000
10141          498669.390000000    1379124.660000000
10141          498642.270000000    1379047.190000000
10145          498576.800000000    1379014.080000000
10145          498547.440000000    1378984.100000000
10147          497381.530000000    1379449.450000000
10147          497367.740000000    1379438.040000000
10147          497364.810000000    1379327.580000000
10147          497365.450000000    1379132.630000000
10147          497359.130000000    1379104.200000000
10147          497237.590000000    1378904.740000000
10147          497214.850000000    1378868.640000000
10147          497203.960000000    1378818.790000000
10147          497205.020000000    1378739.800000000
10147          497215.900000000    1378673.100000000
10147          497216.550000000    1378668.730000000
10149          497259.430000000    1378514.070000000
10191          498778.460000000    1378881.280000000
10191          498715.970000000    1378912.520000000
10191          498674.550000000    1378996.780000000
10191          498615.570000000    1379012.920000000
10193          498431.940000000    1378982.860000000
10193          498418.080000000    1378982.370000000
10193          498395.810000000    1378980.390000000
10193          498366.120000000    1378975.930000000
10193          498344.840000000    1378971.480000000
10193          498328.010000000    1378967.520000000
10193          498312.670000000    1378963.070000000
10193          498298.320000000    1378958.120000000
10193          498285.450000000    1378953.660000000
10195          498521.020000000    1378944.260000000
10195          498535.370000000    1378941.790000000
10195          498552.200000000    1378925.450000000
10195          498560.110000000    1378907.140000000
10197          498560.180000000    1378889.410000000
10197          498526.110000000    1378840.540000000
10197          498525.400000000    1378829.450000000
10197          498496.270000000    1378786.880000000
10197          498491.270000000    1378779.050000000
10197          498487.860000000    1378772.530000000
10197          498484.280000000    1378765.000000000
10197          498481.210000000    1378757.280000000
10197          498477.380000000    1378744.920000000
10197          498475.060000000    1378733.210000000
10197          498494.290000000    1378674.050000000
10199          498487.360000000    1378656.230000000
10199          498479.940000000    1378642.370000000
10199          498463.610000000    1378617.630000000
10199          498304.750000000    1378444.420000000
10199          498284.460000000    1378414.230000000
10199          498273.570000000    1378391.460000000
10199          498265.650000000    1378359.790000000
10199          498263.670000000    1378339.990000000
10201          498262.950000000    1378176.280000000
10201          498262.170000000    1378165.190000000
10205          497878.650000000    1378147.980000000
10205          497856.870000000    1378149.960000000
10205          497836.580000000    1378153.910000000
10205          497798.470000000    1378165.300000000
10205          497757.400000000    1378152.430000000
10205          497741.060000000    1378116.300000000
10205          497752.930000000    1378079.230000000
10209          498252.980000000    1378121.970000000
10209          498241.810000000    1378090.120000000
10209          498217.400000000    1378048.630000000
10247          498229.280000000    1378927.500000000
10247          498203.260000000    1378911.880000000
10247          498171.900000000    1378889.630000000
10247          498147.420000000    1378869.610000000
10247          498126.880000000    1378849.560000000
10247          498100.600000000    1378821.070000000
10247          498071.580000000    1378789.060000000
10247          498063.670000000    1378781.900000000
10247          498054.250000000    1378773.970000000
10247          498042.360000000    1378765.050000000
10247          498028.980000000    1378756.620000000
10247          498023.570000000    1378753.800000000
10247          497995.860000000    1378727.250000000
10247          497994.820000000    1378684.970000000
P387           493754.530000000    1376680.480000000

[LABELS]

[BACKDROP]
DIMENSIONS    443751.110    1327023.210    514728.070    1399041.040
UNITS    NONE
OFFSET    0.00    0.00

[END]
