[TITLE]
Northwest System

[JUNCTIONS]
;ID              	Elev        	Demand      	Pattern         
 8628            	60.000000   	4.094068    	9           	                	;
 8630            	60.000000   	4.094068    	9           	                	;
 8632            	60.000000   	4.094068    	9           	                	;
 8634            	60.000000   	4.094068    	9           	                	;
 8636            	60.000000   	4.094068    	9           	                	;
 8638            	60.000000   	4.094068    	9           	                	;
 8640            	60.000000   	4.094068    	9               	;
 8642            	60.000000   	4.094068    	9               	;
 8644            	60.000000   	4.094068    	9           	                	;
 8646            	60.000000   	4.094068    	9           	                	;
 8648            	60.000000   	4.094068    	9           	                	;
 8650            	62.500000   	4.094068    	9               	;
 8686            	60.000000   	4.094068    	9               	;
 8688            	60.000000   	4.094068    	9               	;
 8690            	60.000000   	4.094068    	9               	;
 8692            	60.000000   	4.094068    	9               	;
 8694            	60.000000   	4.094068    	9               	;
 8696            	60.000000   	4.094068    	9               	;
 8698            	60.000000   	4.094068    	9               	;
 8700            	60.000000   	4.094068    	9               	;
 8702            	60.000000   	4.094068    	9               	;
 8738            	60.000000   	4.094068    	9               	;
 J106            	54.300000   	0           	                	;New Junction

[RESERVOIRS]
;ID              	Head        	Pattern         
 7384            	1.0         	3               	;Lake Park

[TANKS]
;ID              	Elevation   	InitLevel   	MinLevel    	MaxLevel    	Diameter    	MinVol      	VolCurve        	Overflow

[PIPES]
;ID              	Node1           	Node2           	Length      	Diameter    	Roughness   	MinorLoss   	Status
 10133           	8628            	8630            	674.050463  	10.000000   	140.000000  	0.000000    	Open  	;
 10135           	8630            	8632            	500.224328  	10.000000   	140.000000  	0.000000    	Open  	;
 10137           	8632            	8634            	207.133196  	10.000000   	140.000000  	0.000000    	Open  	;
 10139           	8634            	8636            	247.493008  	10.000000   	140.000000  	0.000000    	Open  	;
 10141           	8636            	8638            	165.524572  	10.000000   	140.000000  	0.000000    	Open  	;
 10143           	8638            	8640            	38.446827   	10.000000   	140.000000  	0.000000    	Open  	;
 10145           	8640            	8642            	98.685880   	10.000000   	140.000000  	0.000000    	Open  	;
 10147           	8628            	8644            	858.631600  	8.000000    	140.000000  	0.000000    	Open  	;
 10149           	8644            	8646            	317.491373  	8.000000    	140.000000  	0.000000    	Open  	;
 10151           	8646            	8648            	389.968276  	8.000000    	140.000000  	0.000000    	Open  	;
 10153           	8648            	8650            	221.546095  	8.000000    	140.000000  	0.000000    	Open  	;
 10191           	8686            	8640            	296.548979  	8.000000    	140.000000  	0.000000    	Open  	;
 10193           	8642            	8688            	263.079944  	8.000000    	140.000000  	0.000000    	Open  	;
 10195           	8642            	8690            	105.297432  	8.000000    	140.000000  	0.000000    	Open  	;
 10197           	8690            	8692            	260.479426  	8.000000    	140.000000  	0.000000    	Open  	;
 10199           	8692            	8694            	485.578505  	8.000000    	140.000000  	0.000000    	Open  	;
 10201           	8694            	8696            	109.748843  	8.000000    	140.000000  	0.000000    	Open  	;
 10203           	8696            	8698            	226.642596  	8.000000    	140.000000  	0.000000    	Open  	;
 10205           	8698            	8700            	378.245995  	8.000000    	140.000000  	0.000000    	Open  	;
 10207           	8700            	8648            	324.721046  	8.000000    	140.000000  	0.000000    	Open  	;
 10209           	8696            	8702            	295.599610  	8.000000    	140.000000  	0.000000    	Open  	;
 10247           	8688            	8738            	418.242585  	4.000000    	140.000000  	0.000000    	Open  	;
 1               	J106            	8628            	1000        	12          	100         	0           	Open  	;
 2               	J106            	7384            	1000        	42          	140         	0           	Open  	;

[PUMPS]
;ID              	Node1           	Node2           	Parameters

[VALVES]
;ID              	Node1           	Node2           	Diameter    	Type	Setting     	MinorLoss   

[TAGS]

[DEMANDS]
;Junction        	Demand      	Pattern         	Category

[STATUS]
;ID              	Status/Setting

[PATTERNS]
;ID              	Multipliers
;Average Demands: 9/10/09 to 9/19/09
 1               	0.853754143378505	0.904367581194430	0.927727629417164	0.860428442870715	0.753639650995358	0.877670383225591
 1               	1.223065381947450	1.205267249968220	1.117945164945140	1.033404038043820	1.016162097688940	0.958874360380810
 1               	0.860428442870715	0.887125640839554	0.779224465715496	0.753083459371007	0.826500753785315	0.943857186523338
 1               	1.091247966976300	1.260330220778950	1.268673095144220	1.131849955553910	0.983346791852246	0.793129256324266
 1               	0.933289545660672	0.993358241090561	1.067331727129220	0.998920157334069	0.840961736018437	0.912154263935341
 1               	1.205823441592570	1.176345285501980	1.006150648450630	1.012268756318490	1.003369690328880	0.925502862919761
 1               	0.887681832463905	0.870439892109030	0.818714071044404	0.775331124345040	0.819270262668755	0.879895149722994
 1               	0.910485689062289	0.915491413681446	0.899361856575273	0.842074119267138	0.744740585005745	0.629608918765126
 1               	0.566759265213483	0.500016270291385	0.498903887042684	0.469425730952090	0.435498041866690	0.389890328669923
 1               	0.468313347703389	0.609586020288496	0.842074119267138	1.020055439059400	1.110158482204230	1.112383248701640
 1               	1.035628804541220	0.981678216979193	0.927171437792813	0.918828563427551	0.921609521549305	0.930508587538918
 1               	0.927727629417164	0.907704730940535	0.853754143378505	0.804809280435633	0.669654715718385	0.565646881964782
 1               	0.520595360392366	0.474987647195598	0.481661946687808	0.446621874353707	0.425486592628376	0.398233203035186
 1               	0.436610425115392	0.626271769019021	0.941632420025935	1.101259416214620	1.175232902253280	1.155210003776650
 1               	1.089579392103250	0.983346791852246	0.935514312158076	0.911041880686639	0.958874360380810	0.976116300735685
 1               	1.055651703017850	1.149648087533140	1.146310937787040	0.922165713173656	0.728054836275220	0.579551672573552
 1               	0.695795722062873	0.701913829930732	0.697464296935925	0.699132871808978	0.602911720796287	0.762538716984971
 1               	1.082905092611040	1.051202170023050	0.969442001243475	0.855978909875909	0.883788491093449	0.797578789319073
 1               	0.809815005054791	0.777555890842443	0.745852968254447	0.676885206834945	0.763651100233673	0.865990359114223
 1               	0.986683941598351	1.075118409870130	1.084017475859740	0.947750527893794	0.779224465715496	0.611254595161549
 1               	0.714706237290801	0.725830069777817	0.775331124345040	0.721380536783011	0.619597469526811	0.768656824852830
 1               	1.077343176367530	1.023392588805500	0.904923772818781	0.893243748707413	0.923834288046708	0.873220850230784
 1               	0.788679723329460	0.840961736018436	0.671879482215788	0.655193733485263	0.692458572316768	0.837624586272332
 1               	0.935514312158076	1.037853571038630	1.087354625605850	0.951087677639899	0.763651100233673	0.580107864197903
 1               	0.606805062166742	0.671879482215788	0.705250979676837	0.620153661151162	0.559528774096923	0.773106357847637
 1               	1.064550769007470	1.033404038043820	0.946638144645092	0.906592347691833	0.832340765840999	0.758089183990165
 1               	0.703582404803785	0.752527267746656	0.725273878153466	0.745296776630096	0.761426333736270	0.860984634495066
 1               	0.978897258857440	1.074562218245780	1.051758361647400	0.938295270279830	0.761426333736270	0.562309732218677
 1               	0.630165110389477	0.635727026632985	0.665761374347929	0.638507984754739	0.573433564705693	0.719711961909958
 1               	1.079567942864940	1.045084062155190	0.897693281702220	0.866546550738574	0.822607412414860	0.783673998710302
 1               	0.740847243635289	0.783673998710302	0.724161494904765	0.695795722062873	0.746409159878798	0.835956011399279
 1               	0.926059054544112	1.150760470781840	1.074562218245780	0.898249473326571	0.780336848964197	0.589563121811867
 1               	0.706919554549889	0.746965351503148	0.774774932720689	0.717487195412555	0.566203073589132	0.720268153534309
 1               	1.071781260124030	1.049533595149990	0.932177162411971	0.892131365458712	0.859872251246364	0.818157879420053
 1               	0.777555890842443	0.759201567238866	0.718599578661257	0.763094908609322	0.804253088811283	0.909373305813587
 1               	0.952200060888600	0.977784875608738	0.976672492360036	0.902142814697027	0.806477855308686	0.698020488560276
 1               	0.581220247446605	0.531163001255031	0.479437180190405	0.497791503793982	0.464976197957284	0.443840916231953
 1               	0.500016270291385	0.738066285513535	1.011156373069790	1.148535704284440	1.171339560882820	1.161884303268860
 1               	1.100703224590270	1.044527870530840	1.010043989821090	0.982234408603544	0.955537210634705	0.990021091344456
 1               	0.998920157334069	0.987796324847053	0.941076228401584	0.845967460637594	0.747521543127499	0.622934619272916
;Lake Park Heads: 9/10/09 - 9/19/09
 3               	183.55596   	183.44016   	182.81484   	184.36656   	183.99600   	184.08864   
 3               	189.02172   	191.08296   	189.80916   	182.60640   	186.79836   	187.56264   
 3               	190.57344   	188.41956   	189.80916   	182.49060   	181.17048   	178.83132   
 3               	177.69648   	175.70472   	177.81228   	178.02072   	180.61464   	184.50552   
 3               	176.46900   	179.43348   	181.77264   	184.06548   	184.41288   	182.30532   
 3               	187.33104   	188.79012   	185.91828   	183.74124   	183.04644   	179.73456   
 3               	183.64860   	184.41288   	184.57500   	183.85704   	183.64860   	186.03408   
 3               	186.08040   	186.33516   	186.75204   	186.86784   	185.84880   	186.21936   
 3               	183.55596   	184.22760   	183.92652   	184.25076   	184.25076   	182.46744   
 3               	181.05468   	174.01404   	183.48648   	181.91160   	188.60484   	188.76696   
 3               	188.99856   	188.74380   	188.48904   	188.58168   	188.58168   	188.58168   
 3               	188.69748   	188.76696   	188.67432   	187.44684   	188.79012   	188.69748   
 3               	187.84056   	184.08864   	183.32436   	184.18128   	184.32024   	183.97284   
 3               	183.48648   	182.86116   	180.01248   	180.01248   	181.51788   	181.68000   
 3               	181.72632   	180.19776   	178.76184   	181.23996   	180.03564   	179.24820   
 3               	182.65272   	186.52044   	188.97540   	187.79424   	186.12672   	185.29296   
 3               	184.01916   	183.48648   	183.46332   	184.32024   	184.15812   	183.27804   
 3               	184.57500   	184.04232   	183.39384   	185.33928   	186.05724   	186.24252   
 3               	186.35832   	186.28884   	186.35832   	182.69904   	182.86116   	185.10768   
 3               	181.00836   	180.31356   	183.37068   	183.64860   	185.52456   	183.97284   
 3               	183.04644   	180.77676   	179.82720   	179.87352   	181.00836   	182.81484   
 3               	182.23584   	184.04232   	182.05056   	185.17716   	184.76028   	183.11592   
 3               	182.37480   	182.67588   	184.27392   	183.20856   	186.01092   	185.94144   
 3               	183.44016   	182.05056   	185.73300   	183.69492   	184.94556   	181.05468   
 3               	179.82720   	181.61052   	181.54104   	181.98108   	181.72632   	180.33672   
 3               	180.03564   	181.23996   	182.14320   	183.46332   	185.84880   	190.11024   
 3               	186.86784   	184.13496   	184.01916   	183.88020   	183.81072   	183.53280   
 3               	182.12004   	182.83800   	182.69904   	183.94968   	184.32024   	184.76028   
 3               	183.48648   	183.83388   	183.94968   	184.27392   	184.18128   	182.14320   
 3               	184.34340   	186.12672   	188.65116   	186.40464   	183.44016   	183.92652   
 3               	185.82564   	187.88688   	186.58992   	183.67176   	182.93064   	181.03152   
 3               	181.00836   	177.07116   	182.42112   	180.89256   	182.56008   	182.72220   
 3               	183.44016   	184.18128   	183.69492   	184.22760   	184.18128   	182.86116   
 3               	181.14732   	183.34752   	180.35988   	186.47412   	186.42780   	186.28884   
 3               	186.28884   	186.42780   	186.19620   	182.02740   	180.89256   	180.96204   
 3               	179.43348   	181.44840   	181.91160   	182.81484   	186.45096   	185.24664   
 3               	183.97284   	184.04232   	183.88020   	185.45508   	186.42780   	186.28884   
 3               	185.57088   	181.95792   	179.45664   	182.25900   	183.85704   	186.56676   
 3               	186.35832   	186.40464   	183.90336   	183.90336   	178.76184   	181.84212   
 3               	186.17304   	181.81896   	183.37068   	188.48904   	188.92908   	188.67432   
;Lake Park Heads: 9/10/09 - 9/19/09
 4               	177.48800   	177.48800   	177.48800   	177.48800   	177.48800   	175.17200   
 4               	177.48800   	182.12000   	182.12000   	177.48800   	182.12000   	182.12000   
 4               	182.12000   	179.80400   	182.12000   	177.48800   	177.48800   	172.85600   
 4               	175.17200   	177.48800   	179.80400   	177.48800   	175.17200   	177.48800   
 4               	170.54000   	175.17200   	179.80400   	179.80400   	179.80400   	175.17200   
 4               	175.17200   	179.80400   	172.85600   	172.85600   	172.85600   	179.80400   
 4               	177.48800   	177.48800   	179.80400   	179.80400   	179.80400   	179.80400   
 4               	179.80400   	179.80400   	179.80400   	182.12000   	179.80400   	177.48800   
 4               	175.17200   	172.85600   	172.85600   	175.17200   	175.17200   	179.80400   
 4               	179.80400   	170.54000   	175.17200   	172.85600   	175.17200   	175.17200   
 4               	177.48800   	179.80400   	179.80400   	179.80400   	179.80400   	179.80400   
 4               	179.80400   	179.80400   	179.80400   	179.80400   	179.80400   	179.80400   
 4               	179.80400   	177.48800   	175.17200   	175.17200   	175.17200   	175.17200   
 4               	175.17200   	172.85600   	172.85600   	170.54000   	172.85600   	170.54000   
 4               	170.54000   	170.54000   	170.54000   	172.85600   	170.54000   	170.54000   
 4               	170.54000   	172.85600   	172.85600   	175.17200   	175.17200   	179.80400   
 4               	179.80400   	179.80400   	175.17200   	177.48800   	177.48800   	175.17200   
 4               	172.85600   	172.85600   	175.17200   	177.48800   	177.48800   	177.48800   
 4               	177.48800   	177.48800   	177.48800   	175.17200   	177.48800   	177.48800   
 4               	170.54000   	168.22400   	170.54000   	175.17200   	177.48800   	177.48800   
 4               	175.17200   	172.85600   	172.85600   	177.48800   	177.48800   	177.48800   
 4               	172.85600   	172.85600   	172.85600   	177.48800   	175.17200   	175.17200   
 4               	177.48800   	175.17200   	177.48800   	177.48800   	177.48800   	177.48800   
 4               	175.17200   	170.54000   	172.85600   	175.17200   	177.48800   	177.48800   
 4               	177.48800   	179.80400   	177.48800   	179.80400   	179.80400   	175.17200   
 4               	168.22400   	175.17200   	177.48800   	175.17200   	175.17200   	175.17200   
 4               	177.48800   	177.48800   	177.48800   	177.48800   	177.48800   	177.48800   
 4               	175.17200   	177.48800   	177.48800   	177.48800   	175.17200   	177.48800   
 4               	177.48800   	177.48800   	177.48800   	177.48800   	179.80400   	175.17200   
 4               	172.85600   	177.48800   	182.12000   	179.80400   	179.80400   	179.80400   
 4               	182.12000   	182.12000   	182.12000   	177.48800   	177.48800   	175.17200   
 4               	175.17200   	177.48800   	179.80400   	172.85600   	177.48800   	177.48800   
 4               	177.48800   	177.48800   	177.48800   	179.80400   	177.48800   	175.17200   
 4               	177.48800   	177.48800   	172.85600   	179.80400   	179.80400   	179.80400   
 4               	179.80400   	179.80400   	179.80400   	177.48800   	175.17200   	172.85600   
 4               	170.54000   	172.85600   	172.85600   	175.17200   	177.48800   	177.48800   
 4               	177.48800   	177.48800   	177.48800   	175.17200   	177.48800   	177.48800   
 4               	175.17200   	172.85600   	172.85600   	179.80400   	175.17200   	172.85600   
 4               	172.85600   	175.17200   	177.48800   	177.48800   	170.54000   	177.48800   
 4               	179.80400   	172.85600   	175.17200   	179.80400   	179.80400   	179.80400   
;Lake Park Heads: 9/10/09 - 9/19/09
 5               	188.196397  	187.571077  	186.714157  	188.868037  	188.937517  	188.451157  
 5               	191.091397  	193.592677  	193.083157  	186.135157  	190.466077  	191.253517  
 5               	195.005437  	192.573637  	194.495917  	187.987957  	186.482557  	183.355957  
 5               	181.618957  	179.696677  	182.035837  	182.684317  	184.977157  	189.493357  
 5               	180.924157  	183.633877  	186.019357  	188.613277  	189.632317  	186.528877  
 5               	189.145957  	191.716717  	188.381677  	186.922597  	186.227797  	184.861357  
 5               	188.126917  	189.006997  	189.794437  	189.447037  	188.705917  	190.674517  
 5               	190.466077  	190.674517  	191.322997  	191.878837  	191.230357  	191.415637  
 5               	189.076477  	189.516517  	189.192277  	189.840757  	190.072357  	188.960677  
 5               	187.408957  	179.650357  	187.733197  	185.069797  	190.790317  	190.813477  
 5               	192.040957  	192.388357  	192.388357  	192.457837  	192.480997  	192.388357  
 5               	192.735757  	192.712597  	193.152637  	192.226237  	193.731637  	193.685317  
 5               	193.361077  	190.095517  	188.821717  	189.771277  	190.095517  	189.933397  
 5               	189.006997  	187.617397  	184.073917  	182.962237  	184.305517  	184.282357  
 5               	184.699237  	183.726517  	182.846437  	185.301397  	183.865477  	183.054877  
 5               	185.556157  	188.404837  	190.790317  	191.137717  	190.558717  	191.137717  
 5               	189.609157  	188.914357  	188.011117  	189.400717  	189.678637  	187.941637  
 5               	187.131037  	187.107877  	187.154197  	189.377557  	190.257637  	190.489237  
 5               	190.720837  	190.906117  	191.184037  	187.964797  	187.848997  	189.539677  
 5               	184.745557  	180.252517  	186.250957  	187.779517  	190.257637  	189.701797  
 5               	187.941637  	185.602477  	184.861357  	185.718277  	186.806797  	187.848997  
 5               	185.324557  	187.408957  	186.158317  	189.284917  	188.821717  	187.385797  
 5               	187.594237  	187.432117  	189.470197  	188.613277  	190.952437  	190.280797  
 5               	187.501597  	184.953997  	188.150077  	187.547917  	189.655477  	187.061557  
 5               	185.347717  	187.061557  	186.899437  	187.686877  	187.663717  	185.718277  
 5               	182.614837  	185.116117  	187.061557  	186.737317  	188.126917  	193.500037  
 5               	191.392477  	189.238597  	189.215437  	189.076477  	188.983837  	188.427997  
 5               	186.436237  	187.084717  	186.945757  	188.451157  	189.053317  	190.350277  
 5               	188.937517  	189.145957  	188.891197  	189.678637  	189.724957  	186.945757  
 5               	187.131037  	189.863917  	193.083157  	191.091397  	188.520637  	189.284917  
 5               	191.346157  	192.782077  	192.064117  	189.006997  	188.103757  	186.575197  
 5               	185.509837  	178.955557  	186.135157  	184.815037  	187.756357  	188.659597  
 5               	188.775397  	189.447037  	188.891197  	189.609157  	190.002877  	187.964797  
 5               	185.324557  	187.501597  	184.513957  	190.651357  	191.091397  	191.207197  
 5               	191.207197  	191.392477  	191.531437  	187.594237  	186.204637  	185.556157  
 5               	183.402277  	185.370877  	185.926717  	187.246837  	191.091397  	190.674517  
 5               	189.794437  	190.141837  	189.910237  	190.859797  	192.156757  	192.017797  
 5               	190.674517  	186.714157  	183.680197  	186.111997  	186.829957  	188.219557  
 5               	188.844877  	189.377557  	187.848997  	188.103757  	182.869597  	186.320437  
 5               	190.605037  	185.718277  	187.501597  	192.990517  	193.801117  	193.801117  
;
 2               	0.33        	0.25        	0.209       	0.209       	0.259       	0.32        
 2               	0.2         	0.31        	0.3         	0.399       	0.44        	0.44        
 2               	0.42        	0.369       	0.90        	1.25        	1.279       	1.37        
 2               	1.519       	1.7         	1.75        	1.669       	0.899       	0.479       
;
 6               	0.6321      	0.5399      	0.5728      	0.6633      	0.7886      	1.0562      
 6               	1.2970      	1.2180      	1.0834      	1.0868      	1.0454      	1.0298      
 6               	0.8867      	0.8272      	0.8415      	0.8638      	0.9334      	1.1098      
 6               	1.3249      	1.4867      	1.4832      	1.2076      	0.9341      	0.6588      
 6               	0.6111      	0.7620      	1.0131      	1.2828      	1.6611      	1.9539      
 6               	2.1089      	1.8027      	1.2830      	1.0531      	0.9459      	0.8819      
 6               	0.8370      	0.8404      	0.9122      	0.9467      	0.9433      	1.1674      
 6               	1.5654      	1.9295      	1.9895      	1.7482      	1.3337      	0.9557      
 6               	0.7965      	0.8787      	1.0155      	1.2723      	1.6304      	2.0158      
 6               	2.1694      	1.8330      	1.3186      	1.0494      	0.9674      	0.8624      
 6               	0.8176      	0.8148      	0.7942      	0.8345      	0.9355      	1.1189      
 6               	1.5396      	1.8420      	1.9297      	1.6475      	1.2890      	0.9073      
 6               	0.6665      	0.5930      	0.6087      	0.6985      	0.8304      	1.1189      
 6               	1.3798      	1.2711      	1.0784      	0.9914      	0.9226      	0.8572      
 6               	0.8286      	0.8387      	0.8171      	0.8488      	0.9313      	1.0969      
 6               	1.3257      	1.5235      	1.5068      	1.3069      	1.0040      	0.7236      
 6               	0.5537      	0.5287      	0.5794      	0.6901      	0.8690      	1.1213      
 6               	1.3950      	1.3239      	1.1344      	1.0439      	0.9818      	0.9539      
 6               	0.8996      	0.8600      	0.8349      	0.8854      	0.9821      	1.1036      
 6               	1.2281      	1.3102      	1.2942      	1.1339      	0.9785      	0.7962      
 6               	0.7103      	0.7976      	0.9638      	1.2226      	1.4533      	1.6684      
 6               	1.6412      	1.6083      	1.4991      	1.4154      	1.3708      	1.3197      
 6               	1.2414      	1.1850      	1.1759      	1.1777      	1.2048      	1.2650      
 6               	1.5197      	1.7957      	1.9088      	1.6695      	1.3630      	1.0638      
 6               	0.8767      	0.8921      	1.0013      	1.2055      	1.4735      	1.5079      
 6               	1.5399      	1.5285      	1.4830      	1.4164      	1.3381      	1.2647      
 6               	1.2214      	1.1815      	1.1408      	1.1464      	1.2003      	1.3743      
 6               	1.8096      	2.1529      	2.0941      	1.7284      	1.2299      	0.8001      
 6               	0.5865      	0.5325      	0.5711      	0.6685      	0.7921      	1.0468      
 6               	1.2984      	1.1987      	1.0656      	1.0326      	0.9960      	0.9518      
 6               	0.9017      	0.8687      	0.8188      	0.8544      	0.9243      	1.0524      
 6               	1.2287      	1.3575      	1.3772      	1.1541      	0.9208      	0.6873      
 6               	0.6507      	0.7909      	0.9940      	1.2700      	1.6521      	1.9040      
 6               	2.0132      	1.6157      	1.1812      	1.0506      	0.9173      	0.8359      
 6               	0.7593      	0.7531      	0.7341      	0.7525      	0.8148      	0.9881      
 6               	1.3646      	1.6924      	1.7476      	1.5706      	1.2098      	0.8798      
 6               	0.7680      	0.8635      	1.0239      	1.3037      	1.6384      	1.9789      
 6               	2.0820      	1.7211      	1.2632      	1.0569      	0.9525      	0.8659      
 6               	0.8450      	0.8422      	0.8258      	0.8662      	0.9598      	1.1457      
 6               	1.5372      	1.9235      	2.0958      	1.7797      	1.3465      	0.9529      
 6               	0.7030      	0.6219      	0.6390      	0.7437      	0.8794      	1.1188      
 6               	1.3910      	1.2943      	1.1327      	1.0777      	0.9861      	0.8912      
 6               	0.8412      	0.8016      	0.7862      	0.8165      	0.8899      	1.0273      
 6               	1.1885      	1.3130      	1.3144      	1.1747      	0.9533      	0.6842      
 6               	0.5352      	0.5280      	0.5725      	0.6668      	0.8509      	1.0778      
 6               	1.3659      	1.2758      	1.1061      	1.0007      	0.9484      	0.8939      
 6               	0.8586      	0.8714      	0.8756      	0.9115      	0.9647      	1.0298      
 6               	1.0479      	1.0117      	0.8916      	0.8387      	0.7437      	0.6324      
 6               	0.5715      	0.5976      	0.7006      	0.8634      	1.0235      	1.1544      
 6               	1.1436      	1.1617      	1.1867      	1.2038      	1.1721      	1.1112      
 6               	1.0500      	1.0242      	0.9887      	0.9877      	1.0072      	1.0378      
 6               	1.1617      	1.3328      	1.3700      	1.2049      	1.0641      	0.8634      
 6               	0.7198      	0.7077      	0.7569      	0.8958      	1.0813      	1.1366      
 6               	1.1042      	1.0778      	1.1022      	1.1540      	1.1631      	1.1234      
 6               	1.0778      	1.0420      	1.0026      	1.0033      	1.0242      	1.0917      
 6               	1.3079      	1.5089      	1.5747      	1.3580      	1.0593      	0.7494      
 6               	0.5566      	0.5094      	0.5464      	0.6254      	0.7378      	0.9786      
 6               	1.2212      	1.1143      	0.9407      	0.8422      	0.7643      	0.7604      
 6               	0.7484      	0.7436      	0.6850      	0.7051      	0.7524      	0.8384      
 6               	0.9396      	0.9915      	0.9842      	0.8927      	0.7242      	0.5509      
 6               	0.4712      	0.5224      	0.6111      	0.7538      	1.0033      	1.2194      
 6               	1.4464      	1.1968      	0.9401      	0.8586      	0.8075      	0.7507      
 6               	0.7243      	0.7514      	0.7180      	0.8833      	0.8579      	0.9372      
 6               	1.1481      	1.3643      	1.3841      	1.3100      	1.0179      	0.7483      
 6               	0.6569      	0.7452      	0.8850      	1.1230      	1.4672      	1.7112      
 6               	1.8934      	1.5149      	1.0971      	0.9344      	0.8986      	0.9437      
 6               	0.9257      	0.7681      	0.7388      	0.8126      	0.8787      	1.0406      
 6               	1.3050      	1.5489      	1.6611      	1.4527      	1.1373      	0.8127      
 6               	0.6034      	0.5474      	0.5624      	0.6508      	0.7910      	1.0266      
 6               	1.3112      	1.2021      	0.9935      	0.9180      	0.9146      	0.8110      
 6               	0.7643      	0.7813      	0.7601      	0.8192      	0.9128      	1.0294      
 6               	1.2278      	1.3649      	1.3033      	1.1171      	0.9898      	0.7458      
 6               	0.6250      	0.5925      	0.6511      	0.7322      	0.8927      	1.0969      
 6               	1.3969      	1.3003      	1.1136      	1.0329      	0.9556      	0.8799      
 6               	0.8197      	0.8267      	0.8011      	0.8551      	0.9243      	1.0360      
 6               	1.1777      	1.2622      	1.2414      	1.1237      	1.0061      	0.8457      
 6               	0.7921      	0.8620      	1.0183      	1.2622      	1.5543      	1.7009      
 6               	1.6749      	1.6228      	1.5035      	1.4581      	1.3552      	1.2124      
 6               	1.1490      	1.0980      	1.0694      	1.0567      	1.0974      	1.1515      
 6               	1.4082      	1.6443      	1.7748      	1.5447      	1.2979      	1.0180      
 6               	0.8640      	0.8767      	0.9815      	1.1971      	1.5855      	1.6739      
 6               	1.5817      	1.5065      	1.4397      	1.3778      	1.2817      	1.1752      
 6               	1.1168      	1.0437      	1.0124      	1.0117      	1.0486      	1.1519      
 6               	1.5364      	1.9022      	2.0268      	1.7254      	1.3305      	0.9313      
 6               	0.6645      	0.5904      	0.6101      	0.7089      	0.8345      	1.0611      
 6               	1.3439      	1.2579      	1.0903      	1.0044      	0.9557      	0.9173      
 6               	0.8858      	0.8462      	0.7994      	0.8540      	0.9309      	1.0719      
 6               	1.2834      	1.4351      	1.4394      	1.1966      	0.9260      	0.6918      
 6               	0.6680      	0.8412      	1.0740      	1.4091      	1.7561      	2.0351      
 6               	2.1303      	1.7400      	1.2496      	1.0072      	0.9487      	0.8841      
 6               	0.8493      	0.8416      	0.8252      	0.8850      	0.9452      	1.1502      
 6               	1.5779      	1.9585      	1.9859      	1.7251      	1.3053      	0.9493      
 6               	0.8447      	0.9511      	1.1053      	1.3746      	1.7258      	2.0803      
 6               	2.1642      	1.7621      	1.2623      	1.0239      	0.9294      	0.8823      
 6               	0.8430      	0.8176      	0.8134      	0.8401      	0.9365      	1.1429      
 6               	1.5901      	2.0219      	2.1637      	1.8382      	1.3656      	0.9679      
 6               	0.7186      	0.6258      	0.6337      	0.7375      	0.8774      	1.1272      
 6               	1.4159      	1.2852      	1.0928      	1.0048      	0.9859      	0.8879      
 6               	0.8447      	0.8739      	0.8627      	0.9041      	0.9675      	1.1154      
 6               	1.3750      	1.5896      	1.5944      	1.3303      	1.0426      	0.7567      
 6               	0.5998      	0.5722      	0.6122      	0.7159      	0.8833      	1.1068      
 6               	1.4072      	1.3164      	1.1316      	1.0388      	0.9626      	0.9143      
 6               	0.8649      	0.8501      	0.8704      	0.8909      	0.9678      	1.1053      
 6               	1.2636      	1.3652      	1.3722      	1.1899      	1.0117      	0.8624      
 6               	0.8478      	0.9396      	1.0952      	1.3395      	1.6532      	1.8364      
 6               	1.8040      	1.7343      	1.5515      	1.4479      	1.3799      	1.3165      
 6               	1.2310      	1.2207      	1.1805      	1.1638      	1.1888      	1.2689      
 6               	1.5656      	1.8236      	1.8934      	1.5975      	1.2955      	1.0281      
 6               	0.9027      	0.9359      	1.0272      	1.2602      	1.5782      	1.6896      
 6               	1.5737      	1.4860      	1.4307      	1.4018      	1.3367      	1.2692      
 6               	1.2344      	1.1836      	1.1853      	1.1735      	1.1286      	1.2292      
 6               	1.6225      	1.9740      	2.0478      	1.7487      	1.3278      	0.8823      
 6               	0.6996      	0.5823      	0.6132      	0.7162      	0.8332      	1.0479      
 6               	1.3356      	1.2552      	1.0809      	1.0033      	0.9891      	0.9456      
 6               	0.8733      	0.8875      	0.8513      	0.8391      	0.8377      	0.8727      
 6               	1.0112      	1.0996      	1.0882      	0.9850      	0.7934      	0.6089      
 6               	0.5896      	0.7208      	0.8874      	1.1690      	1.4717      	1.7067      
 6               	1.8466      	1.4784      	1.0774      	0.9278      	0.8617      	0.8103      
 6               	0.7852      	0.8070      	0.7636      	0.8137      	0.9122      	1.0646      
 6               	1.4359      	1.7680      	1.8252      	1.6618      	1.2183      	0.8997      
 6               	0.7951      	0.8804      	1.0388      	1.3381      	1.7025      	2.0166      
 6               	2.0967      	1.6530      	1.2056      	0.9845      	0.9235      	0.8732      
 6               	0.8364      	0.8179      	0.7981      	0.8467      	0.9379      	1.1679      
 6               	1.5932      	1.9638      	2.0508      	1.7239      	1.3139      	0.9131      
 6               	0.6858      	0.5993      	0.6202      	0.7298      	0.8565      	1.0985      
 6               	1.3697      	1.2618      	1.0702      	0.9682      	0.9952      	0.9129      
 6               	0.8573      	0.8742      	0.8502      	0.9024      	0.9932      	1.1490      
 6               	1.4200      	1.6280      	1.7302      	1.4784      	1.1747      	0.8502      
 6               	0.6520      	0.6002      	0.6379      	0.7375      	0.8864      	1.1581      
 6               	1.4282      	1.3461      	1.2091      	1.0948      	1.1230      	1.0428      
 6               	0.9602      	0.9498      	0.9289      	0.9914      	1.0858      	1.2459      
 6               	1.4175      	1.5299      	1.5615      	1.3618      	1.1477      	0.9383      
 6               	0.8857      	0.9584      	1.1248      	1.4162      	1.7437      	1.8991      
 6               	1.8754      	1.7558      	1.6054      	1.5386      	1.4711      	1.4083      
 6               	1.3489      	1.2984      	1.2230      	1.2296      	1.2689      	1.4204      
 6               	1.7358      	2.0596      	2.2080      	1.9340      	1.5849      	1.2306      
 6               	1.0500      	1.0744      	1.1992      	1.4081      	1.7320      	1.9105      
 6               	1.7863      	1.6924      	1.5855      	1.5351      	1.4895      	1.4098      
 6               	1.3423      	1.2835      	1.2535      	1.2626      	1.3176      	1.5168      
 6               	2.0753      	2.5189      	2.6120      	2.1053      	1.5749      	1.1147      
 6               	0.8505      	0.7496      	0.7385      	0.8340      	0.9668      	1.1915      
 6               	1.4522      	1.4225      	1.2652      	1.1607      	1.1111      	1.0728      
 6               	1.0237      	0.9873      	0.9841      	0.9737      	1.0639      	1.2534      
 6               	1.5716      	1.8420      	1.8881      	1.5696      	1.2105      	0.8854      
 6               	0.8365      	1.0300      	1.2796      	1.6103      	2.0486      	2.2335      
 6               	2.3434      	2.0594      	1.5088      	1.2760      	1.1347      	0.9875      
 6               	0.9609      	0.9473      	0.9218      	0.9614      	1.0765      	1.3410      
 6               	1.9189      	2.4087      	2.5326      	2.2654      	1.7680      	1.2602      
 6               	1.0532      	1.1450      	1.2778      	1.5543      	1.9184      	2.1563      
 6               	2.2934      	2.0189      	1.5009      	1.2128      	1.0642      	0.9980      
 6               	0.9442      	0.9796      	0.9284      	0.9622      	1.0744      	1.3442      
 6               	1.8681      	2.3808      	2.6095      	2.3440      	1.8694      	1.2625      
 6               	0.9088      	0.7782      	0.8082      	0.9188      	1.0066      	1.2225      
 6               	1.5095      	1.4739      	1.2990      	1.1135      	1.0353      	0.9902      
 6               	0.9903      	0.9771      	0.9906      	1.0035      	1.0659      	1.2819      
 6               	1.5431      	1.7923      	1.8429      	1.6592      	1.3306      	0.9934      
;
 7               	0.5691504   	0.46466868  	0.43854825  	0.3604161   	0.309779115 	0.334524795 
 7               	0.384703515 	0.471542475 	0.55013289  	0.680505915 	0.70364769  	0.67088259  
 7               	0.79690221  	0.719915685 	0.770552655 	0.73847493  	0.81477408  	0.72426909  
 7               	0.806983785 	0.779259465 	0.866785815 	0.740766195 	0.67042434  	0.632389335 
 7               	0.52252044  	0.506709855 	0.445588455 	0.45465063  	0.47547432  	0.53389635  
 7               	0.662501925 	0.62239704  	0.67599876  	0.72593706  	0.803061855 	0.70144995  
 7               	0.69335184  	0.653825385 	0.621432975 	0.65228289  	0.571880295 	0.57901434  
 7               	0.58209933  	0.711668985 	0.70453494  	0.665779725 	0.741747645 	0.692194965 
 7               	0.72708954  	0.619247205 	0.46304505  	0.45095511  	0.309260895 	0.282421215 
 7               	0.433303785 	0.40670589  	0.545014905 	0.69928266  	0.739904895 	0.6434271   
 7               	0.680905935 	0.691061505 	0.67727895  	0.626259375 	0.626742975 	0.7142742   
 7               	0.681873135 	0.788264685 	0.75779802  	0.788264685 	0.802047225 	0.845571045 
 7               	0.604884255 	0.443633715 	0.5131584   	0.36476118  	0.31782714  	0.463887405 
 7               	0.39572595  	0.64149669  	0.671098245 	0.668761275 	0.79456785  	0.674603685 
 7               	0.754255215 	0.808394895 	0.713747835 	0.68570427  	0.68122509  	0.549576105 
 7               	0.68219883  	0.569829795 	0.74334939  	0.832154025 	0.67888812  	0.746270595 
 7               	0.601325505 	0.503529285 	0.51908778  	0.35946171  	0.29924835  	0.453216765 
 7               	0.42957594  	0.539495655 	0.896330625 	0.89673474  	0.682552935 	0.57990732  
 7               	0.428969775 	0.4200792   	0.62941161  	0.691039395 	0.670631505 	0.618904575 
 7               	0.682552935 	0.832884315 	0.90279648  	0.821771115 	0.84945309  	0.691039395 
 7               	0.716292135 	0.54775281  	0.53349507  	0.419645895 	0.35601804  	0.33814266  
 7               	0.45241743  	0.509874015 	0.56456418  	0.760767795 	0.62159517  	0.67820055  
 7               	0.6928839   	0.639257745 	0.619892745 	0.659686755 	0.65628192  	0.631809675 
 7               	0.604145385 	0.70394961  	0.772471905 	0.88546986  	0.88334184  	0.752042895 
 7               	0.71409849  	0.457925235 	0.446544345 	0.42936957  	0.40184853  	0.43309422  
 7               	0.469926885 	0.52227894  	0.590771145 	0.754862745 	0.76996827  	0.644778585 
 7               	0.73210098  	0.70954614  	0.548144565 	0.577734855 	0.592426545 	0.624499935 
 7               	0.55973238  	0.766864395 	0.716995455 	0.77452062  	0.90446958  	0.85749759  
;
 8               	0.61842105  	0.45394737  	0.444736845 	0.3381579   	0.31578948  	0.313157895 
 8               	0.414473685 	0.448684215 	0.49868421  	0.58157895  	0.684210525 	0.72763158  
 8               	0.669736845 	0.79210527  	0.66842106  	0.815789475 	0.771052635 	0.830263155 
 8               	0.807894735 	0.793421055 	0.83552631  	0.83684211  	0.677631585 	0.661842105 
 8               	0.567746055 	0.470813805 	0.470813805 	0.42607584  	0.428206215 	0.474009375 
 8               	0.57946314  	0.623135925 	0.683851725 	0.774392835 	0.77119728  	0.79569663  
 8               	0.66254793  	0.73604601  	0.71154666  	0.59544099  	0.63485301  	0.616744785 
 8               	0.58159353  	0.596506185 	0.700894755 	0.650830845 	0.71580741  	0.73178526  
 8               	0.681082545 	0.73368099  	0.49901097  	0.373583895 	0.315590715 	0.276479055 
 8               	0.347959005 	0.461247975 	0.528681885 	0.625786725 	0.66894444  	0.7647006   
 8               	0.66624708  	0.651411615 	0.75660852  	0.561050175 	0.655457655 	0.64466823  
 8               	0.71614818  	0.840226575 	0.771443985 	0.790325475 	0.848318655 	0.821345085 
 8               	0.66520308  	0.501646545 	0.49286499  	0.41602635  	0.361141605 	0.437980245 
 8               	0.394072455 	0.654226125 	0.60592755  	0.81119649  	0.769484085 	0.64324917  
 8               	0.69703623  	0.67618002  	0.70801317  	0.70801317  	0.705817785 	0.538968165 
 8               	0.58068057  	0.565312845 	0.75411636  	0.825466515 	0.693743145 	0.793633365 
 8               	0.75185274  	0.5080086   	0.48529764  	0.380109975 	0.33707865  	0.39445374  
 8               	0.48410232  	0.64188381  	0.812813775 	0.84628257  	0.68252451  	0.59287593  
 8               	0.42553191  	0.41955534  	0.583313415 	0.6239541   	0.58689936  	0.562993065 
 8               	0.659813535 	0.811618455 	0.811618455 	0.882142005 	0.85823571  	0.857040405 
 8               	0.670350795 	0.574243155 	0.502162425 	0.43248438  	0.373618455 	0.35439693  
 8               	0.467323395 	0.46612206  	0.59346468  	0.717203265 	0.58625661  	0.58625661  
 8               	0.6811629   	0.647525235 	0.68957232  	0.716001915 	0.70759251  	0.68236425  
 8               	0.660740025 	0.734022105 	0.806102835 	0.796492065 	0.8421432   	0.71239788  
 8               	0.59427819  	0.4651884   	0.494262675 	0.44541789  	0.326794845 	0.512870205 
 8               	0.514033185 	0.525662895 	0.58264848  	0.60125601  	0.77919057  	0.66289347  
 8               	0.68266398  	0.72918282  	0.5896263   	0.603581955 	0.588463335 	0.65940456  
 8               	0.625678395 	0.6977826   	0.78267948  	0.81756861  	0.929213835 	0.789657315 
;
 9               	1.279       	1.37        	1.519       	1.7         	1.75        	1.669       
 9               	0.899       	0.479       	0.33        	0.25        	0.209       	0.209       
 9               	0.259       	0.32        	0.2         	0.31        	0.3         	0.399       
 9               	0.44        	0.44        	0.42        	0.369       	0.90        	1.25        
;
 10              	0.3         	0.399       	0.44        	0.44        	0.42        	0.369       
 10              	0.90        	1.25        	1.279       	1.37        	1.519       	1.7         
 10              	1.75        	1.669       	0.899       	0.479       	0.33        	0.25        
 10              	0.209       	0.209       	0.259       	0.32        	0.2         	0.31        

[CURVES]
;ID              	X-Value     	Y-Value
;PUMP: PUMP: PUMP: PUMP: PUMP: PUMP: PUMP: PUMP: PUMP: PUMP: PUMP: THI Pumps 1 & 2
 1_CURVE         	0           	55.000000   
 1_CURVE         	4200        	50.000000   
 1_CURVE         	8400        	40          
 1_CURVE         	9400        	30.000000   

[CONTROLS]











[RULES]






[ENERGY]
 Global Efficiency  	75.000000
 Global Price       	0
 Demand Charge      	0.000000

[EMITTERS]
;Junction        	Coefficient

[QUALITY]
;Node            	InitQual

[SOURCES]
;Node            	Type        	Quality     	Pattern

[REACTIONS]
;Type     	Pipe/Tank       	Coefficient


[REACTIONS]
 Order Bulk            	1.000000
 Order Tank            	1.000000
 Order Wall            	1
 Global Bulk           	0.000000
 Global Wall           	0.000000
 Limiting Potential    	0
 Roughness Correlation 	0

[MIXING]
;Tank            	Model

[TIMES]
 Duration           	168:00 
 Hydraulic Timestep 	1:00 
 Quality Timestep   	0:05 
 Pattern Timestep   	1:00 
 Pattern Start      	0:00 
 Report Timestep    	1:00 
 Report Start       	0:00 
 Start ClockTime    	12:00:00 AM
 Statistic          	NONE

[REPORT]
 Status             	Full
 Summary            	No
 Page               	0

[OPTIONS]
 Units              	GPM
 Headloss           	H-W
 Specific Gravity   	1.000000
 Viscosity          	1
 Trials             	40
 Accuracy           	0.01
 CHECKFREQ          	2
 MAXCHECK           	10
 DAMPLIMIT          	0
 Unbalanced         	Continue 10
 Pattern            	1
 Demand Multiplier  	1.000000
 Emitter Exponent   	0.500000
 Quality            	None mg/L
 Diffusivity        	1
 Tolerance          	0.010000

[COORDINATES]
;Node            	X-Coord           	Y-Coord
8628            	497381.240        	1379459.290       
8630            	498045.840        	1379433.270       
8632            	498546.050        	1379428.960       
8634            	498753.180        	1379427.180       
8636            	498671.980        	1379203.580       
8638            	498638.220        	1379045.280       
8640            	498603.500        	1379028.750       
8642            	498521.200        	1378983.400       
8644            	497221.320        	1378651.320       
8646            	497310.720        	1378346.700       
8648            	497424.750        	1377973.780       
8650            	497489.760        	1377761.980       
8686            	498830.200        	1378880.380       
8688            	498263.570        	1378944.380       
8690            	498560.180        	1378898.950       
8692            	498491.820        	1378666.130       
8694            	498263.180        	1378259.820       
8696            	498259.620        	1378150.320       
8698            	498032.980        	1378149.010       
8700            	497733.900        	1378073.140       
8702            	498098.270        	1377907.620       
8738            	498017.860        	1378668.200       
J106            	497110.572        	1379467.437       
7384            	497110.572        	1379645.130       

[VERTICES]
;Link            	X-Coord           	Y-Coord
10133           	497681.890        	1379460.180       
10133           	497708.740        	1379435.770       
10139           	498750.280        	1379364.840       
10139           	498700.120        	1379301.530       
10139           	498693.940        	1379293.180       
10139           	498687.450        	1379282.670       
10139           	498681.890        	1379271.240       
10139           	498676.630        	1379255.780       
10139           	498673.850        	1379241.560       
10139           	498672.840        	1379230.360       
10141           	498669.390        	1379124.660       
10141           	498642.270        	1379047.190       
10145           	498576.800        	1379014.080       
10145           	498547.440        	1378984.100       
10147           	497381.530        	1379449.450       
10147           	497367.740        	1379438.040       
10147           	497364.810        	1379327.580       
10147           	497365.450        	1379132.630       
10147           	497359.130        	1379104.200       
10147           	497237.590        	1378904.740       
10147           	497214.850        	1378868.640       
10147           	497203.960        	1378818.790       
10147           	497205.020        	1378739.800       
10147           	497215.900        	1378673.100       
10147           	497216.550        	1378668.730       
10149           	497259.430        	1378514.070       
10191           	498778.460        	1378881.280       
10191           	498715.970        	1378912.520       
10191           	498674.550        	1378996.780       
10191           	498615.570        	1379012.920       
10193           	498431.940        	1378982.860       
10193           	498418.080        	1378982.370       
10193           	498395.810        	1378980.390       
10193           	498366.120        	1378975.930       
10193           	498344.840        	1378971.480       
10193           	498328.010        	1378967.520       
10193           	498312.670        	1378963.070       
10193           	498298.320        	1378958.120       
10193           	498285.450        	1378953.660       
10195           	498521.020        	1378944.260       
10195           	498535.370        	1378941.790       
10195           	498552.200        	1378925.450       
10195           	498560.110        	1378907.140       
10197           	498560.180        	1378889.410       
10197           	498526.110        	1378840.540       
10197           	498525.400        	1378829.450       
10197           	498496.270        	1378786.880       
10197           	498491.270        	1378779.050       
10197           	498487.860        	1378772.530       
10197           	498484.280        	1378765.000       
10197           	498481.210        	1378757.280       
10197           	498477.380        	1378744.920       
10197           	498475.060        	1378733.210       
10197           	498494.290        	1378674.050       
10199           	498487.360        	1378656.230       
10199           	498479.940        	1378642.370       
10199           	498463.610        	1378617.630       
10199           	498304.750        	1378444.420       
10199           	498284.460        	1378414.230       
10199           	498273.570        	1378391.460       
10199           	498265.650        	1378359.790       
10199           	498263.670        	1378339.990       
10201           	498262.950        	1378176.280       
10201           	498262.170        	1378165.190       
10205           	497878.650        	1378147.980       
10205           	497856.870        	1378149.960       
10205           	497836.580        	1378153.910       
10205           	497798.470        	1378165.300       
10205           	497757.400        	1378152.430       
10205           	497741.060        	1378116.300       
10205           	497752.930        	1378079.230       
10209           	498252.980        	1378121.970       
10209           	498241.810        	1378090.120       
10209           	498217.400        	1378048.630       
10247           	498229.280        	1378927.500       
10247           	498203.260        	1378911.880       
10247           	498171.900        	1378889.630       
10247           	498147.420        	1378869.610       
10247           	498126.880        	1378849.560       
10247           	498100.600        	1378821.070       
10247           	498071.580        	1378789.060       
10247           	498063.670        	1378781.900       
10247           	498054.250        	1378773.970       
10247           	498042.360        	1378765.050       
10247           	498028.980        	1378756.620       
10247           	498023.570        	1378753.800       
10247           	497995.860        	1378727.250       
10247           	497994.820        	1378684.970       

[LABELS]
;X-Coord             Y-Coord             Label & Anchor Node

[BACKDROP]
  DIMENSIONS  	443751.110        	1327023.210       	514728.070        	1399041.040       
 UNITS          	None
 FILE           	
 OFFSET         	0.00            	0.00            

[END]
